c 
c G(n,p) graph
c graph gen seed     : 98222
c number of vertices : 60
c max number of edges: 1770
c edge probability   : 0.400000
c data structure     : sparse
c
c           Graph Stats
c number of vertices  : 60
c nonisolated vertices: 60
c number of edges     : 728
c edge density        : 0.411299
c max degree          : 33
c avg degree          : 24.27
c min degree          : 16
p col 60 728
e 1 59
e 1 57
e 1 55
e 1 48
e 1 47
e 1 46
e 1 44
e 1 39
e 1 37
e 1 35
e 1 33
e 1 32
e 1 31
e 1 28
e 1 26
e 1 21
e 1 19
e 1 16
e 1 15
e 1 13
e 1 9
e 1 8
e 1 7
e 1 6
e 2 60
e 2 59
e 2 55
e 2 53
e 2 51
e 2 50
e 2 49
e 2 48
e 2 46
e 2 44
e 2 43
e 2 39
e 2 35
e 2 32
e 2 30
e 2 28
e 2 21
e 2 19
e 2 17
e 2 16
e 2 13
e 2 11
e 2 10
e 2 9
e 2 7
e 2 5
e 2 4
e 2 3
e 3 60
e 3 56
e 3 55
e 3 54
e 3 53
e 3 51
e 3 49
e 3 48
e 3 47
e 3 46
e 3 40
e 3 32
e 3 31
e 3 29
e 3 27
e 3 26
e 3 20
e 3 19
e 3 16
e 3 14
e 3 13
e 3 10
e 3 7
e 3 4
e 4 60
e 4 58
e 4 56
e 4 55
e 4 52
e 4 50
e 4 48
e 4 47
e 4 46
e 4 44
e 4 42
e 4 36
e 4 34
e 4 31
e 4 30
e 4 28
e 4 26
e 4 25
e 4 23
e 4 21
e 4 17
e 4 16
e 4 14
e 4 10
e 4 5
e 5 58
e 5 57
e 5 53
e 5 48
e 5 46
e 5 44
e 5 43
e 5 41
e 5 38
e 5 37
e 5 36
e 5 35
e 5 32
e 5 31
e 5 29
e 5 26
e 5 25
e 5 24
e 5 22
e 5 20
e 5 14
e 5 11
e 5 10
e 5 8
e 5 6
e 6 58
e 6 57
e 6 56
e 6 54
e 6 52
e 6 47
e 6 41
e 6 40
e 6 38
e 6 35
e 6 33
e 6 32
e 6 23
e 6 21
e 6 15
e 6 13
e 6 10
e 6 7
e 7 58
e 7 56
e 7 55
e 7 51
e 7 50
e 7 46
e 7 45
e 7 44
e 7 42
e 7 40
e 7 39
e 7 38
e 7 35
e 7 33
e 7 30
e 7 29
e 7 27
e 7 25
e 7 23
e 7 21
e 7 17
e 7 16
e 7 15
e 7 14
e 7 12
e 7 11
e 7 10
e 7 9
e 7 8
e 8 58
e 8 56
e 8 54
e 8 52
e 8 48
e 8 47
e 8 46
e 8 45
e 8 41
e 8 40
e 8 39
e 8 37
e 8 35
e 8 34
e 8 33
e 8 32
e 8 29
e 8 28
e 8 26
e 8 22
e 8 18
e 8 15
e 8 14
e 8 11
e 8 10
e 9 60
e 9 59
e 9 54
e 9 53
e 9 52
e 9 47
e 9 37
e 9 33
e 9 30
e 9 28
e 9 23
e 9 22
e 9 21
e 9 20
e 9 17
e 9 13
e 9 11
e 9 10
e 10 60
e 10 59
e 10 55
e 10 53
e 10 51
e 10 50
e 10 49
e 10 47
e 10 44
e 10 43
e 10 39
e 10 36
e 10 35
e 10 32
e 10 30
e 10 28
e 10 27
e 10 26
e 10 25
e 10 18
e 10 16
e 10 13
e 10 12
e 10 11
e 11 55
e 11 53
e 11 51
e 11 44
e 11 39
e 11 35
e 11 28
e 11 26
e 11 25
e 11 22
e 11 17
e 11 13
e 12 60
e 12 59
e 12 55
e 12 54
e 12 52
e 12 51
e 12 49
e 12 44
e 12 43
e 12 40
e 12 39
e 12 36
e 12 35
e 12 34
e 12 28
e 12 26
e 12 24
e 12 22
e 12 21
e 12 20
e 12 17
e 12 15
e 12 14
e 13 57
e 13 53
e 13 52
e 13 50
e 13 49
e 13 48
e 13 47
e 13 44
e 13 42
e 13 32
e 13 30
e 13 26
e 13 23
e 13 21
e 13 18
e 13 16
e 13 14
e 14 60
e 14 59
e 14 58
e 14 57
e 14 51
e 14 49
e 14 48
e 14 47
e 14 46
e 14 43
e 14 39
e 14 37
e 14 36
e 14 32
e 14 27
e 14 26
e 14 25
e 14 22
e 14 20
e 14 17
e 14 15
e 15 60
e 15 59
e 15 58
e 15 57
e 15 55
e 15 54
e 15 52
e 15 51
e 15 50
e 15 47
e 15 45
e 15 44
e 15 39
e 15 37
e 15 36
e 15 35
e 15 34
e 15 33
e 15 32
e 15 26
e 15 23
e 15 21
e 15 16
e 16 57
e 16 56
e 16 53
e 16 50
e 16 44
e 16 40
e 16 37
e 16 35
e 16 32
e 16 31
e 16 29
e 16 28
e 16 26
e 16 25
e 16 22
e 16 20
e 17 60
e 17 59
e 17 57
e 17 56
e 17 54
e 17 52
e 17 49
e 17 45
e 17 44
e 17 43
e 17 42
e 17 39
e 17 33
e 17 21
e 17 19
e 17 18
e 18 60
e 18 59
e 18 58
e 18 57
e 18 55
e 18 53
e 18 52
e 18 48
e 18 47
e 18 43
e 18 42
e 18 36
e 18 35
e 18 34
e 18 30
e 18 24
e 18 21
e 18 19
e 19 60
e 19 58
e 19 55
e 19 53
e 19 52
e 19 50
e 19 48
e 19 43
e 19 42
e 19 41
e 19 37
e 19 33
e 19 31
e 19 27
e 19 26
e 19 25
e 19 24
e 19 23
e 19 22
e 20 60
e 20 58
e 20 52
e 20 49
e 20 48
e 20 46
e 20 45
e 20 44
e 20 42
e 20 41
e 20 40
e 20 39
e 20 38
e 20 35
e 20 32
e 20 31
e 20 27
e 20 24
e 20 21
e 21 60
e 21 59
e 21 58
e 21 57
e 21 53
e 21 52
e 21 51
e 21 49
e 21 41
e 21 33
e 21 30
e 21 29
e 21 27
e 21 26
e 21 25
e 21 23
e 22 52
e 22 51
e 22 50
e 22 49
e 22 48
e 22 46
e 22 45
e 22 41
e 22 39
e 22 38
e 22 37
e 22 35
e 22 33
e 22 32
e 22 30
e 22 28
e 22 25
e 22 23
e 23 60
e 23 59
e 23 54
e 23 52
e 23 45
e 23 44
e 23 43
e 23 38
e 23 36
e 23 35
e 23 34
e 23 28
e 23 26
e 23 25
e 23 24
e 24 60
e 24 59
e 24 57
e 24 56
e 24 54
e 24 53
e 24 52
e 24 50
e 24 49
e 24 48
e 24 44
e 24 42
e 24 41
e 24 35
e 24 32
e 24 29
e 24 28
e 24 27
e 24 25
e 25 59
e 25 58
e 25 55
e 25 53
e 25 50
e 25 47
e 25 46
e 25 39
e 25 37
e 25 35
e 25 33
e 25 31
e 25 29
e 26 60
e 26 59
e 26 56
e 26 55
e 26 54
e 26 50
e 26 47
e 26 46
e 26 39
e 26 35
e 26 31
e 26 28
e 27 58
e 27 55
e 27 53
e 27 49
e 27 42
e 27 39
e 27 38
e 27 37
e 27 34
e 27 33
e 27 30
e 27 29
e 28 59
e 28 58
e 28 56
e 28 54
e 28 50
e 28 46
e 28 43
e 28 38
e 28 37
e 28 29
e 29 58
e 29 57
e 29 52
e 29 49
e 29 48
e 29 47
e 29 43
e 29 42
e 29 41
e 29 39
e 29 34
e 29 33
e 30 60
e 30 53
e 30 49
e 30 48
e 30 47
e 30 46
e 30 40
e 30 39
e 30 36
e 30 35
e 30 32
e 30 31
e 31 59
e 31 58
e 31 56
e 31 54
e 31 47
e 31 45
e 31 44
e 31 42
e 31 40
e 31 37
e 31 35
e 32 60
e 32 59
e 32 57
e 32 52
e 32 51
e 32 46
e 32 44
e 32 43
e 32 39
e 32 38
e 32 34
e 32 33
e 33 59
e 33 57
e 33 54
e 33 53
e 33 48
e 33 47
e 33 44
e 33 40
e 33 39
e 33 37
e 33 35
e 34 58
e 34 56
e 34 55
e 34 48
e 34 46
e 34 41
e 34 38
e 34 37
e 35 59
e 35 58
e 35 57
e 35 56
e 35 54
e 35 50
e 35 49
e 35 48
e 36 59
e 36 58
e 36 56
e 36 53
e 36 50
e 36 49
e 36 48
e 36 46
e 36 45
e 36 44
e 36 43
e 36 42
e 36 37
e 37 59
e 37 58
e 37 56
e 37 55
e 37 54
e 37 46
e 37 44
e 37 40
e 37 39
e 38 57
e 38 55
e 38 52
e 38 51
e 38 49
e 38 48
e 38 47
e 38 40
e 39 59
e 39 57
e 39 53
e 39 51
e 39 50
e 39 48
e 39 44
e 39 42
e 39 41
e 39 40
e 40 58
e 40 50
e 40 44
e 41 59
e 41 58
e 41 57
e 41 55
e 41 49
e 41 44
e 42 60
e 42 57
e 42 56
e 42 54
e 42 52
e 42 43
e 43 57
e 43 52
e 43 50
e 43 49
e 43 48
e 43 47
e 44 57
e 44 56
e 44 48
e 44 45
e 45 59
e 45 58
e 45 54
e 45 53
e 45 52
e 45 50
e 45 49
e 45 47
e 45 46
e 46 60
e 46 54
e 46 51
e 46 49
e 46 47
e 47 58
e 47 57
e 47 55
e 47 54
e 47 52
e 47 51
e 48 60
e 48 57
e 48 54
e 48 52
e 49 60
e 49 56
e 49 54
e 49 53
e 49 52
e 50 59
e 50 58
e 50 56
e 50 53
e 51 57
e 51 55
e 52 60
e 52 59
e 52 53
e 53 59
e 53 57
e 53 55
e 53 54
e 54 58
e 54 57
e 55 60
e 55 59
e 55 58
e 56 58
e 56 57
e 57 59
